p cnf 208 1114
1 0
11 0
21 0
31 0
-10 0
-20 0
-30 0
-40 0
-41 -50 0
-41 -59 0
-41 -68 0
-41 -77 0
-41 -86 0
-41 -95 0
-41 -104 0
-50 -59 0
-50 -68 0
-50 -77 0
-50 -86 0
-50 -95 0
-50 -104 0
-59 -68 0
-59 -77 0
-59 -86 0
-59 -95 0
-59 -104 0
-68 -77 0
-68 -86 0
-68 -95 0
-68 -104 0
-77 -86 0
-77 -95 0
-77 -104 0
-86 -95 0
-86 -104 0
-95 -104 0
-42 -51 0
-42 -60 0
-42 -69 0
-42 -78 0
-42 -87 0
-42 -96 0
-42 -105 0
-51 -60 0
-51 -69 0
-51 -78 0
-51 -87 0
-51 -96 0
-51 -105 0
-60 -69 0
-60 -78 0
-60 -87 0
-60 -96 0
-60 -105 0
-69 -78 0
-69 -87 0
-69 -96 0
-69 -105 0
-78 -87 0
-78 -96 0
-78 -105 0
-87 -96 0
-87 -105 0
-96 -105 0
-43 -52 0
-43 -61 0
-43 -70 0
-43 -79 0
-43 -88 0
-43 -97 0
-43 -106 0
-52 -61 0
-52 -70 0
-52 -79 0
-52 -88 0
-52 -97 0
-52 -106 0
-61 -70 0
-61 -79 0
-61 -88 0
-61 -97 0
-61 -106 0
-70 -79 0
-70 -88 0
-70 -97 0
-70 -106 0
-79 -88 0
-79 -97 0
-79 -106 0
-88 -97 0
-88 -106 0
-97 -106 0
-44 -53 0
-44 -62 0
-44 -71 0
-44 -80 0
-44 -89 0
-44 -98 0
-44 -107 0
-53 -62 0
-53 -71 0
-53 -80 0
-53 -89 0
-53 -98 0
-53 -107 0
-62 -71 0
-62 -80 0
-62 -89 0
-62 -98 0
-62 -107 0
-71 -80 0
-71 -89 0
-71 -98 0
-71 -107 0
-80 -89 0
-80 -98 0
-80 -107 0
-89 -98 0
-89 -107 0
-98 -107 0
-45 -54 0
-45 -63 0
-45 -72 0
-45 -81 0
-45 -90 0
-45 -99 0
-45 -108 0
-54 -63 0
-54 -72 0
-54 -81 0
-54 -90 0
-54 -99 0
-54 -108 0
-63 -72 0
-63 -81 0
-63 -90 0
-63 -99 0
-63 -108 0
-72 -81 0
-72 -90 0
-72 -99 0
-72 -108 0
-81 -90 0
-81 -99 0
-81 -108 0
-90 -99 0
-90 -108 0
-99 -108 0
-46 -55 0
-46 -64 0
-46 -73 0
-46 -82 0
-46 -91 0
-46 -100 0
-46 -109 0
-55 -64 0
-55 -73 0
-55 -82 0
-55 -91 0
-55 -100 0
-55 -109 0
-64 -73 0
-64 -82 0
-64 -91 0
-64 -100 0
-64 -109 0
-73 -82 0
-73 -91 0
-73 -100 0
-73 -109 0
-82 -91 0
-82 -100 0
-82 -109 0
-91 -100 0
-91 -109 0
-100 -109 0
-47 -56 0
-47 -65 0
-47 -74 0
-47 -83 0
-47 -92 0
-47 -101 0
-47 -110 0
-56 -65 0
-56 -74 0
-56 -83 0
-56 -92 0
-56 -101 0
-56 -110 0
-65 -74 0
-65 -83 0
-65 -92 0
-65 -101 0
-65 -110 0
-74 -83 0
-74 -92 0
-74 -101 0
-74 -110 0
-83 -92 0
-83 -101 0
-83 -110 0
-92 -101 0
-92 -110 0
-101 -110 0
-48 -57 0
-48 -66 0
-48 -75 0
-48 -84 0
-48 -93 0
-48 -102 0
-48 -111 0
-57 -66 0
-57 -75 0
-57 -84 0
-57 -93 0
-57 -102 0
-57 -111 0
-66 -75 0
-66 -84 0
-66 -93 0
-66 -102 0
-66 -111 0
-75 -84 0
-75 -93 0
-75 -102 0
-75 -111 0
-84 -93 0
-84 -102 0
-84 -111 0
-93 -102 0
-93 -111 0
-102 -111 0
-49 -58 0
-49 -67 0
-49 -76 0
-49 -85 0
-49 -94 0
-49 -103 0
-49 -112 0
-58 -67 0
-58 -76 0
-58 -85 0
-58 -94 0
-58 -103 0
-58 -112 0
-67 -76 0
-67 -85 0
-67 -94 0
-67 -103 0
-67 -112 0
-76 -85 0
-76 -94 0
-76 -103 0
-76 -112 0
-85 -94 0
-85 -103 0
-85 -112 0
-94 -103 0
-94 -112 0
-103 -112 0
113 -59 0
113 -95 0
-113 59 95 0
114 -60 0
114 -96 0
-114 60 96 0
115 -61 0
115 -97 0
-115 61 97 0
116 -62 0
116 -98 0
-116 62 98 0
117 -63 0
117 -99 0
-117 63 99 0
118 -64 0
118 -100 0
-118 64 100 0
119 -65 0
119 -101 0
-119 65 101 0
120 -66 0
120 -102 0
-120 66 102 0
121 -67 0
121 -103 0
-121 67 103 0
122 -68 0
122 -104 0
-122 68 104 0
123 -69 0
123 -105 0
-123 69 105 0
124 -70 0
124 -106 0
-124 70 106 0
125 -71 0
125 -107 0
-125 71 107 0
126 -72 0
126 -108 0
-126 72 108 0
127 -73 0
127 -109 0
-127 73 109 0
128 -74 0
128 -110 0
-128 74 110 0
129 -75 0
129 -111 0
-129 75 111 0
130 -76 0
130 -112 0
-130 76 112 0
131 -50 0
131 -86 0
-131 50 86 0
132 -51 0
132 -87 0
-132 51 87 0
133 -52 0
133 -88 0
-133 52 88 0
134 -53 0
134 -89 0
-134 53 89 0
135 -54 0
135 -90 0
-135 54 90 0
136 -55 0
136 -91 0
-136 55 91 0
137 -56 0
137 -92 0
-137 56 92 0
138 -57 0
138 -93 0
-138 57 93 0
139 -58 0
139 -94 0
-139 58 94 0
140 -41 0
140 -50 0
140 -59 0
140 -68 0
140 -77 0
140 -86 0
140 -95 0
140 -104 0
-140 41 50 59 68 77 86 95 104 0
141 -42 0
141 -51 0
141 -60 0
141 -69 0
141 -78 0
141 -87 0
141 -96 0
141 -105 0
-141 42 51 60 69 78 87 96 105 0
142 -43 0
142 -52 0
142 -61 0
142 -70 0
142 -79 0
142 -88 0
142 -97 0
142 -106 0
-142 43 52 61 70 79 88 97 106 0
143 -44 0
143 -53 0
143 -62 0
143 -71 0
143 -80 0
143 -89 0
143 -98 0
143 -107 0
-143 44 53 62 71 80 89 98 107 0
144 -45 0
144 -54 0
144 -63 0
144 -72 0
144 -81 0
144 -90 0
144 -99 0
144 -108 0
-144 45 54 63 72 81 90 99 108 0
145 -46 0
145 -55 0
145 -64 0
145 -73 0
145 -82 0
145 -91 0
145 -100 0
145 -109 0
-145 46 55 64 73 82 91 100 109 0
146 -47 0
146 -56 0
146 -65 0
146 -74 0
146 -83 0
146 -92 0
146 -101 0
146 -110 0
-146 47 56 65 74 83 92 101 110 0
147 -48 0
147 -57 0
147 -66 0
147 -75 0
147 -84 0
147 -93 0
147 -102 0
147 -111 0
-147 48 57 66 75 84 93 102 111 0
148 -49 0
148 -58 0
148 -67 0
148 -76 0
148 -85 0
148 -94 0
148 -103 0
148 -112 0
-148 49 58 67 76 85 94 103 112 0
113 -1 2 0
113 -2 1 0
113 1 -2 0
113 2 -1 0
114 -2 3 0
114 -3 2 0
114 2 -3 0
114 3 -2 0
115 -3 4 0
115 -4 3 0
115 3 -4 0
115 4 -3 0
116 -4 5 0
116 -5 4 0
116 4 -5 0
116 5 -4 0
117 -5 6 0
117 -6 5 0
117 5 -6 0
117 6 -5 0
118 -6 7 0
118 -7 6 0
118 6 -7 0
118 7 -6 0
119 -7 8 0
119 -8 7 0
119 7 -8 0
119 8 -7 0
120 -8 9 0
120 -9 8 0
120 8 -9 0
120 9 -8 0
121 -9 10 0
121 -10 9 0
121 9 -10 0
121 10 -9 0
122 -11 12 0
122 -12 11 0
122 11 -12 0
122 12 -11 0
123 -12 13 0
123 -13 12 0
123 12 -13 0
123 13 -12 0
124 -13 14 0
124 -14 13 0
124 13 -14 0
124 14 -13 0
125 -14 15 0
125 -15 14 0
125 14 -15 0
125 15 -14 0
126 -15 16 0
126 -16 15 0
126 15 -16 0
126 16 -15 0
127 -16 17 0
127 -17 16 0
127 16 -17 0
127 17 -16 0
128 -17 18 0
128 -18 17 0
128 17 -18 0
128 18 -17 0
129 -18 19 0
129 -19 18 0
129 18 -19 0
129 19 -18 0
130 -19 20 0
130 -20 19 0
130 19 -20 0
130 20 -19 0
131 -21 22 0
131 -22 21 0
131 21 -22 0
131 22 -21 0
132 -22 23 0
132 -23 22 0
132 22 -23 0
132 23 -22 0
133 -23 24 0
133 -24 23 0
133 23 -24 0
133 24 -23 0
134 -24 25 0
134 -25 24 0
134 24 -25 0
134 25 -24 0
135 -25 26 0
135 -26 25 0
135 25 -26 0
135 26 -25 0
136 -26 27 0
136 -27 26 0
136 26 -27 0
136 27 -26 0
137 -27 28 0
137 -28 27 0
137 27 -28 0
137 28 -27 0
138 -28 29 0
138 -29 28 0
138 28 -29 0
138 29 -28 0
139 -29 30 0
139 -30 29 0
139 29 -30 0
139 30 -29 0
140 -31 32 0
140 -32 31 0
140 31 -32 0
140 32 -31 0
141 -32 33 0
141 -33 32 0
141 32 -33 0
141 33 -32 0
142 -33 34 0
142 -34 33 0
142 33 -34 0
142 34 -33 0
143 -34 35 0
143 -35 34 0
143 34 -35 0
143 35 -34 0
144 -35 36 0
144 -36 35 0
144 35 -36 0
144 36 -35 0
145 -36 37 0
145 -37 36 0
145 36 -37 0
145 37 -36 0
146 -37 38 0
146 -38 37 0
146 37 -38 0
146 38 -37 0
147 -38 39 0
147 -39 38 0
147 38 -39 0
147 39 -38 0
148 -39 40 0
148 -40 39 0
148 39 -40 0
148 40 -39 0
-104 31 0
-105 32 0
-106 33 0
-107 34 0
-108 35 0
-109 36 0
-110 37 0
-111 38 0
-112 39 0
-104 11 0
-105 12 0
-106 13 0
-107 14 0
-108 15 0
-109 16 0
-110 17 0
-111 18 0
-112 19 0
-104 -32 0
-105 -33 0
-106 -34 0
-107 -35 0
-108 -36 0
-109 -37 0
-110 -38 0
-111 -39 0
-112 -40 0
-104 -12 0
-105 -13 0
-106 -14 0
-107 -15 0
-108 -16 0
-109 -17 0
-110 -18 0
-111 -19 0
-112 -20 0
-95 31 0
-96 32 0
-97 33 0
-98 34 0
-99 35 0
-100 36 0
-101 37 0
-102 38 0
-103 39 0
-95 1 0
-96 2 0
-97 3 0
-98 4 0
-99 5 0
-100 6 0
-101 7 0
-102 8 0
-103 9 0
-95 -32 0
-96 -33 0
-97 -34 0
-98 -35 0
-99 -36 0
-100 -37 0
-101 -38 0
-102 -39 0
-103 -40 0
-95 -2 0
-96 -3 0
-97 -4 0
-98 -5 0
-99 -6 0
-100 -7 0
-101 -8 0
-102 -9 0
-103 -10 0
-86 31 0
-87 32 0
-88 33 0
-89 34 0
-90 35 0
-91 36 0
-92 37 0
-93 38 0
-94 39 0
-86 21 0
-87 22 0
-88 23 0
-89 24 0
-90 25 0
-91 26 0
-92 27 0
-93 28 0
-94 29 0
-86 -32 0
-87 -33 0
-88 -34 0
-89 -35 0
-90 -36 0
-91 -37 0
-92 -38 0
-93 -39 0
-94 -40 0
-86 -22 0
-87 -23 0
-88 -24 0
-89 -25 0
-90 -26 0
-91 -27 0
-92 -28 0
-93 -29 0
-94 -30 0
-77 31 0
-78 32 0
-79 33 0
-80 34 0
-81 35 0
-82 36 0
-83 37 0
-84 38 0
-85 39 0
-77 31 0
-78 32 0
-79 33 0
-80 34 0
-81 35 0
-82 36 0
-83 37 0
-84 38 0
-85 39 0
-77 -32 0
-78 -33 0
-79 -34 0
-80 -35 0
-81 -36 0
-82 -37 0
-83 -38 0
-84 -39 0
-85 -40 0
-77 -32 0
-78 -33 0
-79 -34 0
-80 -35 0
-81 -36 0
-82 -37 0
-83 -38 0
-84 -39 0
-85 -40 0
-68 -31 0
-69 -32 0
-70 -33 0
-71 -34 0
-72 -35 0
-73 -36 0
-74 -37 0
-75 -38 0
-76 -39 0
-68 -11 0
-69 -12 0
-70 -13 0
-71 -14 0
-72 -15 0
-73 -16 0
-74 -17 0
-75 -18 0
-76 -19 0
-68 32 0
-69 33 0
-70 34 0
-71 35 0
-72 36 0
-73 37 0
-74 38 0
-75 39 0
-76 40 0
-68 12 0
-69 13 0
-70 14 0
-71 15 0
-72 16 0
-73 17 0
-74 18 0
-75 19 0
-76 20 0
-59 -31 0
-60 -32 0
-61 -33 0
-62 -34 0
-63 -35 0
-64 -36 0
-65 -37 0
-66 -38 0
-67 -39 0
-59 -1 0
-60 -2 0
-61 -3 0
-62 -4 0
-63 -5 0
-64 -6 0
-65 -7 0
-66 -8 0
-67 -9 0
-59 32 0
-60 33 0
-61 34 0
-62 35 0
-63 36 0
-64 37 0
-65 38 0
-66 39 0
-67 40 0
-59 2 0
-60 3 0
-61 4 0
-62 5 0
-63 6 0
-64 7 0
-65 8 0
-66 9 0
-67 10 0
-50 -31 0
-51 -32 0
-52 -33 0
-53 -34 0
-54 -35 0
-55 -36 0
-56 -37 0
-57 -38 0
-58 -39 0
-50 -21 0
-51 -22 0
-52 -23 0
-53 -24 0
-54 -25 0
-55 -26 0
-56 -27 0
-57 -28 0
-58 -29 0
-50 32 0
-51 33 0
-52 34 0
-53 35 0
-54 36 0
-55 37 0
-56 38 0
-57 39 0
-58 40 0
-50 22 0
-51 23 0
-52 24 0
-53 25 0
-54 26 0
-55 27 0
-56 28 0
-57 29 0
-58 30 0
-41 -31 0
-42 -32 0
-43 -33 0
-44 -34 0
-45 -35 0
-46 -36 0
-47 -37 0
-48 -38 0
-49 -39 0
-41 -31 0
-42 -32 0
-43 -33 0
-44 -34 0
-45 -35 0
-46 -36 0
-47 -37 0
-48 -38 0
-49 -39 0
-41 32 0
-42 33 0
-43 34 0
-44 35 0
-45 36 0
-46 37 0
-47 38 0
-48 39 0
-49 40 0
-41 32 0
-42 33 0
-43 34 0
-44 35 0
-45 36 0
-46 37 0
-47 38 0
-48 39 0
-49 40 0
-149 -31 11 0
-149 31 -11 0
-150 -32 12 0
-150 32 -12 0
-151 -33 13 0
-151 33 -13 0
-152 -34 14 0
-152 34 -14 0
-153 -35 15 0
-153 35 -15 0
-154 -36 16 0
-154 36 -16 0
-155 -37 17 0
-155 37 -17 0
-156 -38 18 0
-156 38 -18 0
-157 -39 19 0
-157 39 -19 0
-158 -40 20 0
-158 40 -20 0
-149 -31 1 0
-149 31 -1 0
-150 -32 2 0
-150 32 -2 0
-151 -33 3 0
-151 33 -3 0
-152 -34 4 0
-152 34 -4 0
-153 -35 5 0
-153 35 -5 0
-154 -36 6 0
-154 36 -6 0
-155 -37 7 0
-155 37 -7 0
-156 -38 8 0
-156 38 -8 0
-157 -39 9 0
-157 39 -9 0
-158 -40 10 0
-158 40 -10 0
-159 -31 21 0
-159 31 -21 0
-160 -32 22 0
-160 32 -22 0
-161 -33 23 0
-161 33 -23 0
-162 -34 24 0
-162 34 -24 0
-163 -35 25 0
-163 35 -25 0
-164 -36 26 0
-164 36 -26 0
-165 -37 27 0
-165 37 -27 0
-166 -38 28 0
-166 38 -28 0
-167 -39 29 0
-167 39 -29 0
-168 -40 30 0
-168 40 -30 0
-159 -31 11 0
-159 31 -11 0
-160 -32 12 0
-160 32 -12 0
-161 -33 13 0
-161 33 -13 0
-162 -34 14 0
-162 34 -14 0
-163 -35 15 0
-163 35 -15 0
-164 -36 16 0
-164 36 -16 0
-165 -37 17 0
-165 37 -17 0
-166 -38 18 0
-166 38 -18 0
-167 -39 19 0
-167 39 -19 0
-168 -40 20 0
-168 40 -20 0
-169 -1 -31 0
-169 1 31 0
-170 -2 -32 0
-170 2 32 0
-171 -3 -33 0
-171 3 33 0
-172 -4 -34 0
-172 4 34 0
-173 -5 -35 0
-173 5 35 0
-174 -6 -36 0
-174 6 36 0
-175 -7 -37 0
-175 7 37 0
-176 -8 -38 0
-176 8 38 0
-177 -9 -39 0
-177 9 39 0
-178 -10 -40 0
-178 10 40 0
-169 -1 -11 0
-169 1 11 0
-170 -2 -12 0
-170 2 12 0
-171 -3 -13 0
-171 3 13 0
-172 -4 -14 0
-172 4 14 0
-173 -5 -15 0
-173 5 15 0
-174 -6 -16 0
-174 6 16 0
-175 -7 -17 0
-175 7 17 0
-176 -8 -18 0
-176 8 18 0
-177 -9 -19 0
-177 9 19 0
-178 -10 -20 0
-178 10 20 0
-179 -11 -31 0
-179 11 31 0
-180 -12 -32 0
-180 12 32 0
-181 -13 -33 0
-181 13 33 0
-182 -14 -34 0
-182 14 34 0
-183 -15 -35 0
-183 15 35 0
-184 -16 -36 0
-184 16 36 0
-185 -17 -37 0
-185 17 37 0
-186 -18 -38 0
-186 18 38 0
-187 -19 -39 0
-187 19 39 0
-188 -20 -40 0
-188 20 40 0
-179 -11 -21 0
-179 11 21 0
-180 -12 -22 0
-180 12 22 0
-181 -13 -23 0
-181 13 23 0
-182 -14 -24 0
-182 14 24 0
-183 -15 -25 0
-183 15 25 0
-184 -16 -26 0
-184 16 26 0
-185 -17 -27 0
-185 17 27 0
-186 -18 -28 0
-186 18 28 0
-187 -19 -29 0
-187 19 29 0
-188 -20 -30 0
-188 20 30 0
-189 -11 -31 0
-189 11 31 0
-190 -12 -32 0
-190 12 32 0
-191 -13 -33 0
-191 13 33 0
-192 -14 -34 0
-192 14 34 0
-193 -15 -35 0
-193 15 35 0
-194 -16 -36 0
-194 16 36 0
-195 -17 -37 0
-195 17 37 0
-196 -18 -38 0
-196 18 38 0
-197 -19 -39 0
-197 19 39 0
-198 -20 -40 0
-198 20 40 0
-189 -11 -1 0
-189 11 1 0
-190 -12 -2 0
-190 12 2 0
-191 -13 -3 0
-191 13 3 0
-192 -14 -4 0
-192 14 4 0
-193 -15 -5 0
-193 15 5 0
-194 -16 -6 0
-194 16 6 0
-195 -17 -7 0
-195 17 7 0
-196 -18 -8 0
-196 18 8 0
-197 -19 -9 0
-197 19 9 0
-198 -20 -10 0
-198 20 10 0
-199 -21 -31 0
-199 21 31 0
-200 -22 -32 0
-200 22 32 0
-201 -23 -33 0
-201 23 33 0
-202 -24 -34 0
-202 24 34 0
-203 -25 -35 0
-203 25 35 0
-204 -26 -36 0
-204 26 36 0
-205 -27 -37 0
-205 27 37 0
-206 -28 -38 0
-206 28 38 0
-207 -29 -39 0
-207 29 39 0
-208 -30 -40 0
-208 30 40 0
-199 -21 -11 0
-199 21 11 0
-200 -22 -12 0
-200 22 12 0
-201 -23 -13 0
-201 23 13 0
-202 -24 -14 0
-202 24 14 0
-203 -25 -15 0
-203 25 15 0
-204 -26 -16 0
-204 26 16 0
-205 -27 -17 0
-205 27 17 0
-206 -28 -18 0
-206 28 18 0
-207 -29 -19 0
-207 29 19 0
-208 -30 -20 0
-208 30 20 0
189 169 149 0
199 179 159 0
190 170 150 0
200 180 160 0
191 171 151 0
201 181 161 0
192 172 152 0
202 182 162 0
193 173 153 0
203 183 163 0
194 174 154 0
204 184 164 0
195 175 155 0
205 185 165 0
196 176 156 0
206 186 166 0
197 177 157 0
207 187 167 0
198 178 158 0
208 188 168 0
